\ Model SP_Location_Capacity_copy
\ LP format - for model browsing. Use MPS format to capture full model detail.
\ Signature: 0x267ae670d660ef4a
Minimize
 
Subject To
 satisfy_demand_0: = 8.335944632960702
Bounds
End
